NAME : F-n72-k4
COMMENT : 73-82 are charging stations
TYPE : CVRP
DIMENSION : 72
EDGE_WEIGHT_TYPE : EUC_2D
CAPACITY : 3871
NODE_COORD_SECTION
1 0 0
2 -12 -6
3 -15 -5
4 -1 -18
5 2 -21
6 -1 -17
7 -9 -12
8 2 -22
9 1 -21
10 7 -25
11 -7 -17
12 -11 -5
13 -14 -9
14 -14 -8
15 -11 -2
16 -14 -5
17 -15 -9
18 -15 -8
19 -9 -6
20 -14 -4
21 3 6
22 5 9
23 5 10
24 2 8
25 1 9
26 1 10
27 2 9
28 6 14
29 5 12
30 3 7
31 4 8
32 -6 1
33 -6 2
34 -8 -2
35 -7 2
36 -7 -3
37 -7 -2
38 -20 12
39 -20 13
40 -12 10
41 -20 15
42 -6 8
43 2 21
44 2 22
45 1 21
46 -1 24
47 1 22
48 -2 20
49 -2 21
50 -4 18
51 -4 19
52 -5 18
53 -5 26
54 1 23
55 -6 5
56 -6 6
57 -9 6
58 -9 7
59 -12 5
60 -12 6
61 -11 3
62 -11 4
63 -14 4
64 -14 5
65 -15 4
66 -15 5
67 -16 7
68 -16 8
69 -15 10
70 -20 10
71 -5 19
72 -9 -11
73 17.5 -16.4
74 -8.8 7.6
75 11.1 13.3
76 1.5 -18.0
77 6.5 -14.3
78 -10.5 -19.8
79 14.7 -19.7
80 11.0 -4.2
81 -17.8 -6.2
82 16.6 2.9
DEMAND_SECTION
1 0
2 706
3 5
4 2
5 307
6 34
7 104
8 69
9 300
10 3
11 113
12 2161
13 5
14 5
15 55
16 17
17 6
18 52
19 283
20 151
21 88
22 255
23 121
24 181
25 305
26 4
27 156
28 74
29 153
30 70
31 102
32 88
33 168
34 1023
35 29
36 289
37 45
38 41
39 20
40 49
41 102
42 11
43 4
44 8
45 1
46 56
47 187
48 354
49 80
50 96
51 6
52 136
53 23
54 4
55 1
56 14
57 714
58 225
59 38
60 13
61 194
62 18
63 393
64 46
65 1
66 13
67 234
68 75
69 126
70 80
71 366
72 245
DEPOT_SECTION
 1
 -1
EOF
